p edge 64 512
e 1 9
e 1 18
e 1 48
e 1 31
e 1 62
e 1 34
e 1 27
e 1 23
e 1 17
e 1 63
e 1 10
e 1 42
e 1 51
e 1 15
e 1 26
e 1 22
e 1 32
e 1 39
e 1 54
e 2 43
e 2 40
e 2 57
e 2 33
e 2 34
e 2 23
e 2 31
e 2 18
e 2 64
e 2 27
e 2 41
e 2 58
e 2 45
e 2 6
e 2 15
e 2 59
e 2 39
e 2 24
e 3 62
e 3 55
e 3 59
e 3 20
e 3 43
e 3 53
e 3 24
e 3 64
e 3 10
e 3 23
e 3 44
e 3 6
e 3 15
e 3 36
e 3 18
e 4 39
e 4 31
e 4 51
e 4 28
e 4 25
e 4 16
e 4 50
e 4 21
e 4 48
e 4 45
e 4 58
e 4 40
e 4 7
e 4 55
e 4 54
e 4 36
e 4 46
e 4 62
e 5 56
e 5 9
e 5 53
e 5 52
e 5 16
e 5 10
e 5 57
e 5 55
e 5 6
e 5 37
e 5 39
e 5 35
e 5 30
e 5 23
e 5 12
e 5 33
e 5 24
e 5 7
e 5 15
e 5 54
e 6 41
e 6 27
e 6 43
e 6 38
e 6 60
e 6 23
e 6 19
e 6 22
e 7 59
e 7 53
e 7 41
e 7 31
e 7 62
e 7 47
e 7 15
e 7 24
e 7 17
e 7 10
e 7 46
e 7 8
e 8 31
e 8 18
e 8 43
e 8 44
e 8 10
e 8 60
e 8 28
e 8 11
e 9 60
e 9 57
e 9 20
e 9 62
e 9 59
e 9 29
e 9 21
e 9 13
e 9 40
e 9 54
e 10 38
e 10 31
e 10 40
e 10 32
e 10 56
e 10 42
e 10 20
e 10 54
e 10 62
e 10 45
e 10 34
e 10 13
e 10 46
e 10 26
e 11 51
e 11 61
e 11 40
e 11 15
e 11 21
e 11 41
e 11 52
e 11 47
e 11 33
e 11 28
e 11 48
e 11 43
e 12 47
e 12 24
e 12 31
e 12 45
e 12 13
e 12 14
e 12 49
e 12 36
e 12 18
e 12 53
e 12 27
e 12 23
e 12 40
e 12 62
e 13 64
e 13 34
e 13 31
e 13 60
e 13 40
e 13 50
e 13 37
e 13 26
e 13 32
e 13 23
e 13 57
e 13 28
e 14 63
e 14 59
e 14 41
e 14 15
e 14 32
e 14 52
e 14 18
e 14 50
e 14 34
e 14 25
e 14 37
e 14 47
e 14 49
e 14 57
e 14 36
e 15 17
e 15 31
e 15 47
e 15 22
e 15 55
e 15 26
e 15 48
e 15 23
e 15 38
e 15 43
e 15 29
e 16 39
e 16 35
e 16 45
e 16 27
e 16 57
e 16 34
e 16 38
e 16 41
e 16 46
e 16 29
e 16 49
e 16 44
e 16 51
e 16 30
e 16 54
e 16 23
e 17 47
e 17 22
e 17 29
e 17 57
e 17 54
e 17 35
e 17 55
e 17 46
e 17 34
e 17 37
e 17 49
e 17 19
e 18 48
e 18 42
e 18 23
e 18 56
e 18 39
e 18 19
e 18 41
e 18 46
e 18 33
e 18 44
e 18 20
e 18 50
e 19 56
e 19 61
e 19 62
e 19 41
e 19 38
e 19 49
e 19 35
e 19 43
e 19 33
e 19 28
e 19 44
e 19 53
e 19 55
e 19 20
e 19 24
e 19 26
e 19 58
e 19 60
e 19 30
e 20 57
e 20 28
e 20 40
e 20 41
e 20 38
e 20 29
e 20 63
e 20 55
e 20 64
e 21 49
e 21 50
e 21 44
e 21 60
e 21 56
e 21 26
e 21 24
e 21 47
e 21 57
e 22 41
e 22 47
e 22 28
e 22 25
e 22 48
e 22 61
e 22 26
e 22 40
e 23 40
e 23 39
e 23 54
e 23 32
e 23 38
e 23 64
e 23 61
e 23 48
e 23 43
e 24 27
e 24 34
e 24 44
e 24 62
e 24 51
e 24 52
e 24 41
e 24 56
e 24 42
e 24 35
e 24 57
e 25 46
e 25 55
e 25 41
e 25 47
e 25 45
e 25 37
e 25 35
e 25 60
e 25 44
e 25 48
e 26 55
e 26 53
e 26 34
e 26 52
e 26 54
e 26 50
e 26 51
e 26 63
e 26 64
e 26 62
e 27 51
e 27 64
e 27 47
e 27 38
e 27 59
e 27 45
e 27 48
e 27 46
e 27 39
e 27 41
e 27 34
e 27 37
e 27 55
e 28 31
e 28 29
e 28 50
e 28 47
e 28 42
e 28 61
e 28 39
e 28 37
e 28 33
e 28 64
e 29 51
e 29 33
e 29 47
e 29 55
e 29 56
e 29 37
e 29 58
e 29 41
e 29 40
e 30 62
e 30 46
e 30 48
e 30 40
e 30 61
e 30 41
e 30 33
e 30 51
e 31 37
e 31 45
e 31 44
e 31 60
e 31 63
e 31 43
e 31 61
e 31 33
e 32 56
e 32 53
e 32 39
e 32 55
e 32 46
e 32 35
e 32 49
e 32 54
e 32 45
e 32 52
e 33 54
e 33 64
e 33 48
e 33 53
e 33 60
e 33 41
e 33 62
e 34 48
e 34 36
e 34 64
e 34 37
e 34 45
e 34 47
e 34 61
e 35 43
e 35 38
e 35 58
e 35 40
e 35 45
e 35 51
e 35 61
e 36 37
e 36 59
e 36 38
e 36 44
e 36 47
e 36 41
e 36 42
e 36 58
e 36 64
e 36 62
e 37 46
e 37 58
e 37 44
e 37 56
e 37 39
e 37 45
e 38 49
e 38 51
e 38 50
e 38 60
e 38 44
e 39 51
e 39 64
e 39 42
e 39 60
e 39 54
e 39 46
e 39 40
e 39 61
e 40 62
e 40 51
e 40 59
e 41 64
e 41 55
e 41 44
e 41 42
e 41 59
e 42 47
e 42 57
e 42 54
e 42 46
e 42 53
e 42 49
e 42 59
e 42 48
e 42 63
e 43 49
e 43 53
e 43 48
e 43 54
e 43 59
e 43 50
e 43 62
e 43 57
e 44 64
e 44 62
e 44 51
e 45 48
e 45 53
e 45 57
e 45 64
e 46 63
e 46 48
e 46 58
e 46 51
e 47 49
e 47 59
e 47 61
e 47 60
e 48 61
e 48 51
e 48 56
e 48 64
e 48 57
e 49 61
e 49 58
e 50 56
e 50 63
e 50 59
e 50 54
e 51 54
e 51 53
e 51 59
e 52 60
e 52 53
e 52 59
e 52 62
e 52 61
e 52 57
e 53 60
e 54 63
e 55 62
e 55 63
e 56 64
e 56 60
e 56 63
e 57 63
e 57 60
e 58 63
e 59 63
e 60 61
e 61 62
